65
1 0 20
2 0 25
2 1 40
3 0 29
3 1 21
3 2 38
4 0 4
4 1 18
4 2 28
4 3 23
5 0 27
5 1 26
5 2 46
5 3 49
5 4 2
6 0 50
6 1 28
6 2 31
6 3 2
6 4 3
6 5 47
7 0 47
7 1 47
7 2 25
7 3 22
7 4 34
7 5 30
7 6 49
8 0 35
8 1 36
8 2 10
8 3 13
8 4 46
8 5 5
8 6 14
8 7 18
9 0 9
9 1 49
9 2 38
9 3 33
9 4 34
9 5 14
9 6 20
9 7 39
9 8 20
10 0 2
10 1 30
10 2 36
10 3 22
10 4 1
10 5 41
10 6 14
10 7 4
10 8 9
10 9 3
11 0 2
11 1 28
11 2 27
11 3 47
11 4 27
11 5 38
11 6 7
11 7 23
11 8 3
11 9 25
11 10 41
12 0 23
12 1 10
12 2 5
12 3 48
12 4 22
12 5 31
12 6 24
12 7 32
12 8 2
12 9 6
12 10 40
12 11 37
13 0 31
13 1 2
13 2 20
13 3 40
13 4 26
13 5 42
13 6 40
13 7 46
13 8 49
13 9 10
13 10 40
13 11 49
13 12 4
14 0 4
14 1 48
14 2 28
14 3 28
14 4 17
14 5 49
14 6 49
14 7 5
14 8 14
14 9 47
14 10 46
14 11 44
14 12 40
14 13 14
15 0 26
15 1 41
15 2 15
15 3 40
15 4 9
15 5 33
15 6 22
15 7 24
15 8 13
15 9 36
15 10 9
15 11 31
15 12 25
15 13 16
15 14 7
16 0 23
16 1 33
16 2 37
16 3 45
16 4 41
16 5 3
16 6 33
16 7 40
16 8 39
16 9 39
16 10 6
16 11 18
16 12 36
16 13 29
16 14 25
16 15 27
17 0 30
17 1 7
17 2 15
17 3 16
17 4 27
17 5 41
17 6 20
17 7 17
17 8 34
17 9 22
17 10 12
17 11 25
17 12 37
17 13 21
17 14 9
17 15 47
17 16 27
18 0 14
18 1 39
18 2 37
18 3 42
18 4 41
18 5 43
18 6 6
18 7 35
18 8 43
18 9 31
18 10 9
18 11 30
18 12 32
18 13 8
18 14 14
18 15 7
18 16 25
18 17 7
19 0 36
19 1 28
19 2 46
19 3 20
19 4 18
19 5 43
19 6 20
19 7 46
19 8 9
19 9 50
19 10 41
19 11 9
19 12 2
19 13 33
19 14 49
19 15 8
19 16 4
19 17 17
19 18 25
20 0 12
20 1 25
20 2 45
20 3 29
20 4 36
20 5 46
20 6 40
20 7 3
20 8 7
20 9 5
20 10 31
20 11 35
20 12 1
20 13 2
20 14 35
20 15 42
20 16 10
20 17 41
20 18 33
20 19 33
21 0 31
21 1 12
21 2 39
21 3 45
21 4 14
21 5 36
21 6 44
21 7 34
21 8 40
21 9 31
21 10 19
21 11 29
21 12 35
21 13 49
21 14 37
21 15 24
21 16 26
21 17 23
21 18 27
21 19 27
21 20 1
22 0 49
22 1 39
22 2 19
22 3 28
22 4 12
22 5 48
22 6 29
22 7 3
22 8 5
22 9 21
22 10 32
22 11 7
22 12 31
22 13 42
22 14 11
22 15 35
22 16 17
22 17 39
22 18 28
22 19 24
22 20 34
22 21 33
23 0 45
23 1 45
23 2 43
23 3 38
23 4 37
23 5 47
23 6 49
23 7 46
23 8 46
23 9 33
23 10 18
23 11 9
23 12 5
23 13 12
23 14 5
23 15 25
23 16 7
23 17 49
23 18 3
23 19 4
23 20 3
23 21 2
23 22 38
24 0 16
24 1 12
24 2 40
24 3 45
24 4 10
24 5 21
24 6 38
24 7 27
24 8 25
24 9 47
24 10 6
24 11 10
24 12 26
24 13 23
24 14 34
24 15 10
24 16 39
24 17 30
24 18 49
24 19 20
24 20 8
24 21 39
24 22 9
24 23 26
25 0 23
25 1 42
25 2 26
25 3 24
25 4 3
25 5 17
25 6 31
25 7 42
25 8 28
25 9 32
25 10 3
25 11 20
25 12 9
25 13 7
25 14 47
25 15 47
25 16 32
25 17 14
25 18 11
25 19 2
25 20 28
25 21 8
25 22 5
25 23 46
25 24 36
26 0 45
26 1 47
26 2 23
26 3 38
26 4 3
26 5 14
26 6 7
26 7 46
26 8 44
26 9 40
26 10 19
26 11 11
26 12 48
26 13 39
26 14 14
26 15 3
26 16 37
26 17 47
26 18 8
26 19 49
26 20 50
26 21 43
26 22 21
26 23 8
26 24 1
26 25 24
27 0 1
27 1 13
27 2 10
27 3 6
27 4 14
27 5 45
27 6 26
27 7 23
27 8 26
27 9 30
27 10 38
27 11 43
27 12 27
27 13 38
27 14 30
27 15 15
27 16 26
27 17 36
27 18 46
27 19 48
27 20 7
27 21 20
27 22 48
27 23 40
27 24 21
27 25 40
27 26 10
28 0 45
28 1 37
28 2 25
28 3 7
28 4 30
28 5 32
28 6 38
28 7 4
28 8 10
28 9 17
28 10 49
28 11 44
28 12 14
28 13 28
28 14 39
28 15 13
28 16 38
28 17 39
28 18 32
28 19 50
28 20 41
28 21 38
28 22 46
28 23 8
28 24 1
28 25 24
28 26 4
28 27 5
29 0 36
29 1 25
29 2 44
29 3 8
29 4 42
29 5 16
29 6 12
29 7 49
29 8 25
29 9 34
29 10 44
29 11 50
29 12 5
29 13 16
29 14 2
29 15 31
29 16 46
29 17 48
29 18 41
29 19 45
29 20 10
29 21 35
29 22 39
29 23 4
29 24 23
29 25 23
29 26 16
29 27 46
29 28 9
30 0 43
30 1 23
30 2 47
30 3 30
30 4 21
30 5 13
30 6 49
30 7 38
30 8 30
30 9 1
30 10 28
30 11 17
30 12 34
30 13 3
30 14 5
30 15 46
30 16 5
30 17 25
30 18 45
30 19 26
30 20 47
30 21 26
30 22 20
30 23 32
30 24 21
30 25 1
30 26 12
30 27 18
30 28 44
30 29 23
31 0 8
31 1 46
31 2 31
31 3 36
31 4 22
31 5 42
31 6 10
31 7 36
31 8 42
31 9 49
31 10 23
31 11 27
31 12 2
31 13 15
31 14 13
31 15 8
31 16 1
31 17 49
31 18 33
31 19 49
31 20 45
31 21 39
31 22 45
31 23 47
31 24 12
31 25 36
31 26 35
31 27 30
31 28 38
31 29 37
31 30 32
32 0 41
32 1 49
32 2 40
32 3 19
32 4 33
32 5 15
32 6 22
32 7 13
32 8 39
32 9 20
32 10 46
32 11 32
32 12 18
32 13 6
32 14 30
32 15 32
32 16 23
32 17 8
32 18 33
32 19 18
32 20 10
32 21 8
32 22 46
32 23 45
32 24 9
32 25 5
32 26 7
32 27 20
32 28 8
32 29 5
32 30 40
32 31 5
33 0 36
33 1 50
33 2 26
33 3 20
33 4 36
33 5 14
33 6 38
33 7 44
33 8 22
33 9 10
33 10 5
33 11 7
33 12 44
33 13 22
33 14 16
33 15 44
33 16 28
33 17 11
33 18 18
33 19 24
33 20 50
33 21 1
33 22 24
33 23 3
33 24 23
33 25 13
33 26 32
33 27 37
33 28 27
33 29 21
33 30 25
33 31 36
33 32 10
34 0 41
34 1 34
34 2 1
34 3 38
34 4 32
34 5 26
34 6 29
34 7 13
34 8 5
34 9 46
34 10 31
34 11 9
34 12 48
34 13 20
34 14 22
34 15 12
34 16 26
34 17 20
34 18 25
34 19 4
34 20 1
34 21 16
34 22 43
34 23 43
34 24 49
34 25 40
34 26 45
34 27 42
34 28 44
34 29 32
34 30 25
34 31 1
34 32 17
34 33 41
35 0 2
35 1 6
35 2 27
35 3 33
35 4 25
35 5 7
35 6 32
35 7 32
35 8 41
35 9 50
35 10 22
35 11 21
35 12 27
35 13 19
35 14 23
35 15 48
35 16 31
35 17 3
35 18 15
35 19 21
35 20 36
35 21 15
35 22 47
35 23 2
35 24 16
35 25 7
35 26 6
35 27 33
35 28 21
35 29 23
35 30 13
35 31 9
35 32 7
35 33 18
35 34 24
36 0 14
36 1 43
36 2 14
36 3 24
36 4 13
36 5 47
36 6 29
36 7 38
36 8 31
36 9 24
36 10 46
36 11 42
36 12 45
36 13 6
36 14 11
36 15 1
36 16 48
36 17 13
36 18 26
36 19 32
36 20 23
36 21 2
36 22 28
36 23 33
36 24 28
36 25 41
36 26 14
36 27 22
36 28 37
36 29 14
36 30 15
36 31 30
36 32 25
36 33 16
36 34 3
36 35 40
37 0 25
37 1 4
37 2 31
37 3 18
37 4 38
37 5 9
37 6 33
37 7 20
37 8 37
37 9 37
37 10 30
37 11 37
37 12 1
37 13 39
37 14 39
37 15 39
37 16 39
37 17 15
37 18 6
37 19 12
37 20 40
37 21 39
37 22 31
37 23 13
37 24 1
37 25 6
37 26 42
37 27 11
37 28 21
37 29 20
37 30 49
37 31 32
37 32 28
37 33 31
37 34 7
37 35 35
37 36 1
38 0 26
38 1 15
38 2 5
38 3 26
38 4 7
38 5 39
38 6 42
38 7 32
38 8 32
38 9 2
38 10 33
38 11 13
38 12 38
38 13 28
38 14 16
38 15 13
38 16 26
38 17 45
38 18 6
38 19 5
38 20 18
38 21 48
38 22 9
38 23 48
38 24 45
38 25 28
38 26 24
38 27 10
38 28 32
38 29 20
38 30 28
38 31 46
38 32 37
38 33 11
38 34 29
38 35 39
38 36 12
38 37 38
39 0 47
39 1 32
39 2 34
39 3 30
39 4 33
39 5 27
39 6 1
39 7 20
39 8 21
39 9 5
39 10 46
39 11 36
39 12 40
39 13 20
39 14 14
39 15 25
39 16 12
39 17 41
39 18 14
39 19 11
39 20 21
39 21 24
39 22 16
39 23 43
39 24 27
39 25 10
39 26 42
39 27 24
39 28 30
39 29 18
39 30 34
39 31 49
39 32 16
39 33 30
39 34 29
39 35 10
39 36 28
39 37 31
39 38 46
40 0 36
40 1 26
40 2 32
40 3 37
40 4 39
40 5 43
40 6 34
40 7 1
40 8 8
40 9 24
40 10 20
40 11 6
40 12 9
40 13 38
40 14 39
40 15 17
40 16 49
40 17 21
40 18 40
40 19 2
40 20 33
40 21 20
40 22 19
40 23 13
40 24 7
40 25 13
40 26 34
40 27 19
40 28 42
40 29 50
40 30 38
40 31 4
40 32 8
40 33 27
40 34 17
40 35 11
40 36 40
40 37 3
40 38 46
40 39 1
41 0 20
41 1 38
41 2 33
41 3 22
41 4 22
41 5 17
41 6 34
41 7 16
41 8 11
41 9 28
41 10 33
41 11 6
41 12 40
41 13 4
41 14 7
41 15 9
41 16 8
41 17 24
41 18 30
41 19 38
41 20 34
41 21 43
41 22 16
41 23 10
41 24 35
41 25 35
41 26 32
41 27 16
41 28 20
41 29 36
41 30 10
41 31 25
41 32 14
41 33 4
41 34 2
41 35 11
41 36 31
41 37 46
41 38 42
41 39 8
41 40 47
42 0 17
42 1 35
42 2 44
42 3 15
42 4 3
42 5 49
42 6 34
42 7 2
42 8 30
42 9 25
42 10 25
42 11 50
42 12 34
42 13 36
42 14 27
42 15 36
42 16 43
42 17 47
42 18 12
42 19 49
42 20 10
42 21 31
42 22 36
42 23 23
42 24 48
42 25 18
42 26 32
42 27 41
42 28 34
42 29 47
42 30 26
42 31 10
42 32 28
42 33 35
42 34 25
42 35 43
42 36 26
42 37 14
42 38 14
42 39 38
42 40 25
42 41 44
43 0 44
43 1 2
43 2 2
43 3 18
43 4 13
43 5 41
43 6 4
43 7 19
43 8 39
43 9 35
43 10 15
43 11 12
43 12 27
43 13 1
43 14 47
43 15 37
43 16 35
43 17 33
43 18 25
43 19 27
43 20 10
43 21 40
43 22 41
43 23 13
43 24 49
43 25 15
43 26 33
43 27 12
43 28 10
43 29 12
43 30 32
43 31 24
43 32 7
43 33 48
43 34 1
43 35 25
43 36 42
43 37 34
43 38 43
43 39 45
43 40 36
43 41 16
43 42 30
44 0 47
44 1 37
44 2 22
44 3 45
44 4 26
44 5 21
44 6 4
44 7 23
44 8 2
44 9 25
44 10 7
44 11 46
44 12 29
44 13 27
44 14 27
44 15 15
44 16 44
44 17 44
44 18 11
44 19 34
44 20 9
44 21 38
44 22 37
44 23 29
44 24 6
44 25 26
44 26 5
44 27 34
44 28 2
44 29 16
44 30 9
44 31 45
44 32 19
44 33 21
44 34 22
44 35 25
44 36 6
44 37 20
44 38 14
44 39 11
44 40 28
44 41 34
44 42 4
44 43 16
45 0 25
45 1 1
45 2 27
45 3 7
45 4 47
45 5 11
45 6 8
45 7 33
45 8 47
45 9 50
45 10 1
45 11 44
45 12 48
45 13 37
45 14 39
45 15 16
45 16 44
45 17 31
45 18 49
45 19 32
45 20 40
45 21 23
45 22 46
45 23 29
45 24 1
45 25 8
45 26 33
45 27 20
45 28 43
45 29 19
45 30 46
45 31 24
45 32 16
45 33 14
45 34 2
45 35 9
45 36 36
45 37 7
45 38 8
45 39 27
45 40 34
45 41 13
45 42 6
45 43 44
45 44 12
46 0 20
46 1 16
46 2 15
46 3 47
46 4 44
46 5 42
46 6 16
46 7 3
46 8 44
46 9 45
46 10 28
46 11 29
46 12 26
46 13 31
46 14 1
46 15 10
46 16 49
46 17 12
46 18 18
46 19 39
46 20 31
46 21 34
46 22 12
46 23 4
46 24 45
46 25 41
46 26 29
46 27 11
46 28 20
46 29 42
46 30 28
46 31 39
46 32 21
46 33 1
46 34 15
46 35 5
46 36 2
46 37 4
46 38 43
46 39 24
46 40 14
46 41 17
46 42 43
46 43 50
46 44 3
46 45 30
47 0 46
47 1 14
47 2 50
47 3 43
47 4 36
47 5 44
47 6 9
47 7 38
47 8 11
47 9 13
47 10 26
47 11 10
47 12 36
47 13 7
47 14 14
47 15 23
47 16 19
47 17 34
47 18 5
47 19 46
47 20 27
47 21 26
47 22 2
47 23 10
47 24 2
47 25 36
47 26 10
47 27 6
47 28 17
47 29 10
47 30 25
47 31 45
47 32 6
47 33 11
47 34 29
47 35 35
47 36 27
47 37 43
47 38 17
47 39 10
47 40 30
47 41 42
47 42 8
47 43 38
47 44 1
47 45 34
47 46 6
48 0 26
48 1 39
48 2 21
48 3 23
48 4 29
48 5 9
48 6 23
48 7 16
48 8 39
48 9 44
48 10 37
48 11 30
48 12 46
48 13 30
48 14 39
48 15 6
48 16 30
48 17 11
48 18 14
48 19 39
48 20 36
48 21 27
48 22 3
48 23 6
48 24 21
48 25 41
48 26 31
48 27 32
48 28 6
48 29 2
48 30 35
48 31 43
48 32 44
48 33 23
48 34 33
48 35 38
48 36 4
48 37 38
48 38 16
48 39 6
48 40 17
48 41 4
48 42 34
48 43 8
48 44 7
48 45 24
48 46 43
48 47 8
49 0 26
49 1 45
49 2 50
49 3 5
49 4 41
49 5 23
49 6 43
49 7 33
49 8 13
49 9 35
49 10 27
49 11 35
49 12 7
49 13 13
49 14 29
49 15 31
49 16 25
49 17 42
49 18 9
49 19 39
49 20 43
49 21 29
49 22 22
49 23 49
49 24 14
49 25 20
49 26 37
49 27 40
49 28 39
49 29 23
49 30 50
49 31 10
49 32 2
49 33 9
49 34 44
49 35 40
49 36 37
49 37 24
49 38 26
49 39 24
49 40 48
49 41 40
49 42 29
49 43 24
49 44 36
49 45 24
49 46 4
49 47 3
49 48 22
50 0 23
50 1 39
50 2 18
50 3 34
50 4 6
50 5 1
50 6 5
50 7 40
50 8 4
50 9 9
50 10 50
50 11 18
50 12 1
50 13 6
50 14 30
50 15 3
50 16 49
50 17 22
50 18 16
50 19 47
50 20 36
50 21 10
50 22 2
50 23 44
50 24 43
50 25 35
50 26 46
50 27 36
50 28 11
50 29 14
50 30 42
50 31 34
50 32 20
50 33 7
50 34 35
50 35 23
50 36 22
50 37 4
50 38 36
50 39 38
50 40 12
50 41 4
50 42 14
50 43 41
50 44 5
50 45 22
50 46 46
50 47 45
50 48 21
50 49 5
51 0 36
51 1 29
51 2 27
51 3 39
51 4 1
51 5 31
51 6 11
51 7 34
51 8 9
51 9 46
51 10 8
51 11 23
51 12 49
51 13 4
51 14 35
51 15 42
51 16 41
51 17 13
51 18 30
51 19 18
51 20 32
51 21 34
51 22 15
51 23 20
51 24 27
51 25 22
51 26 22
51 27 17
51 28 13
51 29 10
51 30 12
51 31 1
51 32 5
51 33 18
51 34 1
51 35 39
51 36 42
51 37 40
51 38 12
51 39 2
51 40 2
51 41 42
51 42 26
51 43 2
51 44 16
51 45 14
51 46 35
51 47 9
51 48 46
51 49 9
51 50 49
52 0 7
52 1 23
52 2 24
52 3 16
52 4 39
52 5 24
52 6 39
52 7 2
52 8 11
52 9 37
52 10 41
52 11 13
52 12 4
52 13 45
52 14 21
52 15 16
52 16 12
52 17 49
52 18 47
52 19 30
52 20 1
52 21 11
52 22 35
52 23 20
52 24 23
52 25 43
52 26 31
52 27 26
52 28 3
52 29 44
52 30 8
52 31 44
52 32 13
52 33 6
52 34 29
52 35 27
52 36 23
52 37 1
52 38 23
52 39 29
52 40 28
52 41 44
52 42 39
52 43 37
52 44 37
52 45 22
52 46 15
52 47 4
52 48 37
52 49 21
52 50 26
52 51 43
53 0 20
53 1 48
53 2 18
53 3 18
53 4 7
53 5 10
53 6 49
53 7 20
53 8 48
53 9 26
53 10 2
53 11 35
53 12 46
53 13 14
53 14 33
53 15 33
53 16 13
53 17 38
53 18 13
53 19 38
53 20 32
53 21 49
53 22 4
53 23 40
53 24 48
53 25 13
53 26 41
53 27 44
53 28 8
53 29 2
53 30 35
53 31 38
53 32 23
53 33 14
53 34 7
53 35 33
53 36 14
53 37 47
53 38 40
53 39 8
53 40 42
53 41 8
53 42 18
53 43 25
53 44 35
53 45 31
53 46 32
53 47 14
53 48 20
53 49 14
53 50 40
53 51 38
53 52 29
54 0 26
54 1 38
54 2 40
54 3 8
54 4 25
54 5 49
54 6 31
54 7 34
54 8 2
54 9 18
54 10 31
54 11 42
54 12 22
54 13 40
54 14 36
54 15 44
54 16 6
54 17 42
54 18 30
54 19 49
54 20 47
54 21 14
54 22 18
54 23 18
54 24 22
54 25 28
54 26 18
54 27 22
54 28 30
54 29 33
54 30 30
54 31 11
54 32 34
54 33 32
54 34 40
54 35 50
54 36 20
54 37 44
54 38 45
54 39 32
54 40 16
54 41 46
54 42 41
54 43 26
54 44 16
54 45 20
54 46 27
54 47 27
54 48 29
54 49 12
54 50 44
54 51 49
54 52 11
54 53 28
55 0 39
55 1 40
55 2 45
55 3 25
55 4 27
55 5 9
55 6 29
55 7 7
55 8 32
55 9 49
55 10 30
55 11 15
55 12 46
55 13 21
55 14 28
55 15 29
55 16 23
55 17 25
55 18 45
55 19 18
55 20 9
55 21 30
55 22 44
55 23 11
55 24 6
55 25 25
55 26 17
55 27 15
55 28 47
55 29 27
55 30 1
55 31 17
55 32 4
55 33 50
55 34 24
55 35 24
55 36 32
55 37 29
55 38 18
55 39 13
55 40 42
55 41 40
55 42 41
55 43 2
55 44 38
55 45 22
55 46 26
55 47 5
55 48 27
55 49 34
55 50 18
55 51 48
55 52 17
55 53 18
55 54 26
56 0 35
56 1 42
56 2 19
56 3 7
56 4 23
56 5 46
56 6 26
56 7 21
56 8 8
56 9 40
56 10 41
56 11 20
56 12 17
56 13 48
56 14 34
56 15 37
56 16 28
56 17 16
56 18 1
56 19 38
56 20 33
56 21 43
56 22 8
56 23 50
56 24 11
56 25 19
56 26 26
56 27 9
56 28 18
56 29 8
56 30 4
56 31 25
56 32 15
56 33 42
56 34 13
56 35 34
56 36 9
56 37 25
56 38 35
56 39 49
56 40 42
56 41 8
56 42 50
56 43 1
56 44 36
56 45 39
56 46 22
56 47 26
56 48 6
56 49 33
56 50 18
56 51 4
56 52 26
56 53 48
56 54 30
56 55 23
57 0 23
57 1 25
57 2 6
57 3 9
57 4 19
57 5 8
57 6 44
57 7 17
57 8 19
57 9 24
57 10 21
57 11 7
57 12 44
57 13 22
57 14 42
57 15 4
57 16 16
57 17 22
57 18 3
57 19 12
57 20 43
57 21 37
57 22 36
57 23 2
57 24 19
57 25 17
57 26 37
57 27 3
57 28 14
57 29 29
57 30 31
57 31 19
57 32 48
57 33 12
57 34 18
57 35 47
57 36 48
57 37 47
57 38 41
57 39 13
57 40 12
57 41 37
57 42 20
57 43 26
57 44 38
57 45 42
57 46 19
57 47 21
57 48 33
57 49 15
57 50 8
57 51 47
57 52 30
57 53 11
57 54 8
57 55 24
57 56 8
58 0 7
58 1 10
58 2 3
58 3 47
58 4 16
58 5 43
58 6 36
58 7 19
58 8 3
58 9 35
58 10 10
58 11 3
58 12 25
58 13 31
58 14 26
58 15 43
58 16 29
58 17 38
58 18 4
58 19 40
58 20 32
58 21 29
58 22 17
58 23 42
58 24 17
58 25 1
58 26 15
58 27 13
58 28 38
58 29 3
58 30 16
58 31 18
58 32 30
58 33 44
58 34 42
58 35 35
58 36 15
58 37 29
58 38 17
58 39 42
58 40 48
58 41 4
58 42 12
58 43 27
58 44 39
58 45 31
58 46 45
58 47 45
58 48 20
58 49 7
58 50 39
58 51 32
58 52 50
58 53 13
58 54 15
58 55 41
58 56 20
58 57 43
59 0 15
59 1 25
59 2 22
59 3 16
59 4 35
59 5 6
59 6 16
59 7 41
59 8 4
59 9 42
59 10 27
59 11 32
59 12 18
59 13 39
59 14 48
59 15 48
59 16 16
59 17 6
59 18 47
59 19 38
59 20 1
59 21 30
59 22 21
59 23 1
59 24 29
59 25 22
59 26 34
59 27 37
59 28 12
59 29 14
59 30 49
59 31 13
59 32 4
59 33 14
59 34 20
59 35 17
59 36 43
59 37 26
59 38 23
59 39 48
59 40 36
59 41 32
59 42 21
59 43 17
59 44 33
59 45 44
59 46 22
59 47 2
59 48 3
59 49 12
59 50 41
59 51 20
59 52 43
59 53 33
59 54 3
59 55 35
59 56 49
59 57 43
59 58 24
60 0 41
60 1 50
60 2 31
60 3 34
60 4 5
60 5 17
60 6 37
60 7 4
60 8 46
60 9 29
60 10 30
60 11 4
60 12 48
60 13 18
60 14 17
60 15 1
60 16 20
60 17 8
60 18 49
60 19 27
60 20 17
60 21 43
60 22 50
60 23 18
60 24 12
60 25 3
60 26 9
60 27 20
60 28 13
60 29 16
60 30 45
60 31 32
60 32 29
60 33 35
60 34 43
60 35 29
60 36 24
60 37 39
60 38 8
60 39 36
60 40 8
60 41 26
60 42 12
60 43 32
60 44 11
60 45 35
60 46 49
60 47 29
60 48 40
60 49 15
60 50 50
60 51 32
60 52 50
60 53 15
60 54 49
60 55 50
60 56 13
60 57 20
60 58 26
60 59 28
61 0 15
61 1 11
61 2 43
61 3 12
61 4 18
61 5 12
61 6 27
61 7 33
61 8 26
61 9 25
61 10 37
61 11 40
61 12 20
61 13 31
61 14 1
61 15 14
61 16 32
61 17 45
61 18 14
61 19 44
61 20 35
61 21 22
61 22 41
61 23 34
61 24 9
61 25 30
61 26 16
61 27 2
61 28 30
61 29 6
61 30 13
61 31 5
61 32 3
61 33 1
61 34 9
61 35 31
61 36 33
61 37 27
61 38 28
61 39 8
61 40 22
61 41 18
61 42 34
61 43 18
61 44 4
61 45 30
61 46 10
61 47 16
61 48 32
61 49 3
61 50 34
61 51 33
61 52 18
61 53 14
61 54 8
61 55 29
61 56 3
61 57 44
61 58 23
61 59 6
61 60 25
62 0 23
62 1 3
62 2 23
62 3 7
62 4 7
62 5 22
62 6 38
62 7 50
62 8 6
62 9 11
62 10 5
62 11 17
62 12 21
62 13 46
62 14 22
62 15 32
62 16 12
62 17 30
62 18 32
62 19 2
62 20 26
62 21 5
62 22 49
62 23 4
62 24 10
62 25 27
62 26 36
62 27 32
62 28 37
62 29 4
62 30 28
62 31 6
62 32 47
62 33 29
62 34 15
62 35 26
62 36 25
62 37 8
62 38 35
62 39 43
62 40 20
62 41 1
62 42 27
62 43 6
62 44 19
62 45 7
62 46 25
62 47 25
62 48 46
62 49 24
62 50 4
62 51 47
62 52 19
62 53 46
62 54 37
62 55 1
62 56 39
62 57 9
62 58 14
62 59 35
62 60 28
62 61 5
63 0 42
63 1 28
63 2 41
63 3 21
63 4 49
63 5 20
63 6 47
63 7 41
63 8 47
63 9 31
63 10 8
63 11 30
63 12 5
63 13 20
63 14 47
63 15 34
63 16 43
63 17 45
63 18 45
63 19 22
63 20 41
63 21 32
63 22 42
63 23 45
63 24 46
63 25 10
63 26 4
63 27 44
63 28 32
63 29 37
63 30 47
63 31 23
63 32 46
63 33 35
63 34 25
63 35 48
63 36 45
63 37 8
63 38 31
63 39 32
63 40 45
63 41 18
63 42 44
63 43 32
63 44 15
63 45 25
63 46 9
63 47 18
63 48 1
63 49 41
63 50 41
63 51 21
63 52 44
63 53 29
63 54 31
63 55 50
63 56 6
63 57 16
63 58 7
63 59 46
63 60 41
63 61 39
63 62 5
64 0 7
64 1 34
64 2 5
64 3 47
64 4 17
64 5 48
64 6 12
64 7 21
64 8 31
64 9 11
64 10 45
64 11 11
64 12 38
64 13 1
64 14 10
64 15 2
64 16 24
64 17 5
64 18 45
64 19 3
64 20 23
64 21 19
64 22 8
64 23 17
64 24 20
64 25 48
64 26 37
64 27 16
64 28 50
64 29 44
64 30 19
64 31 15
64 32 48
64 33 19
64 34 48
64 35 3
64 36 15
64 37 48
64 38 2
64 39 17
64 40 15
64 41 13
64 42 31
64 43 20
64 44 23
64 45 42
64 46 37
64 47 35
64 48 33
64 49 15
64 50 18
64 51 8
64 52 37
64 53 5
64 54 37
64 55 50
64 56 17
64 57 19
64 58 16
64 59 38
64 60 8
64 61 16
64 62 24
64 63 11
